p cnf 16 48
4 15 -8 0
15 -13 1 0
-2 -6 -7 0
5 12 -6 0
-1 4 8 0
3 -5 -11 0
-16 -11 8 0
11 2 1 0
1 11 -7 0
14 -4 -11 0
7 -1 14 0
-3 -11 -2 0
11 -1 -13 0
8 -3 10 0
-1 2 16 0
-5 2 12 0
6 -1 8 0
-16 -5 -2 0
6 -5 9 0
-14 -5 -9 0
-6 2 -5 0
1 6 -4 0
-12 -11 9 0
-6 -14 1 0
3 7 -15 0
1 -16 -6 0
-1 9 -16 0
-4 11 -5 0
4 1 2 0
-3 -13 7 0
-14 15 -1 0
-4 -10 -5 0
-3 -2 -10 0
15 -1 3 0
6 -8 2 0
-1 -3 6 0
15 13 -1 0
4 -1 16 0
9 -2 -1 0
2 6 -4 0
-10 -1 5 0
-16 -2 12 0
16 -2 3 0
4 -2 14 0
-12 -10 -4 0
14 2 -16 0
-7 -8 -12 0
-14 2 4 0
